# Solution for model GasLib-40
# Objective value = 6.7975800937685392e+01
loadshed[innode_1] 0
loadshed[innode_2] 0
loadshed[innode_3] 0
loadshed[innode_4] 0
loadshed[innode_5] 0
loadshed[innode_6] 0
loadshed[innode_7] 0
loadshed[innode_8] 0
loadshed[source_1] -3.7128024757684841e-02
loadshed[source_2] 1.1718002609314526e-01
loadshed[source_3] 3.4992890510098806e-01
loadshed[sink_1] 1
loadshed[sink_2] 0
loadshed[sink_3] 0
loadshed[sink_4] 0
loadshed[sink_5] 0
loadshed[sink_6] 0
loadshed[sink_7] 0
loadshed[sink_8] 0
loadshed[sink_9] 0
loadshed[sink_10] 0
loadshed[sink_11] 0
loadshed[sink_12] 1
loadshed[sink_13] 0
loadshed[sink_14] 0
loadshed[sink_15] 0
loadshed[sink_16] 0
loadshed[sink_17] 0
loadshed[sink_18] 0
loadshed[sink_19] 0
loadshed[sink_20] 0
loadshed[sink_21] 1
loadshed[sink_22] 2.0021511265193159e-01
loadshed[sink_23] 0
loadshed[sink_24] 9.5626698290080558e-01
loadshed[sink_25] 0
loadshed[sink_26] 0
loadshed[sink_27] 0
loadshed[sink_28] 0
loadshed[sink_29] 0
flow[source_1,sink_3] 1.6395985752506039e+02
flow[innode_1,sink_16] 1.6354166666666970e+01
flow[innode_6,sink_13] 1.1709246698778571e+01
flow[sink_13,sink_14] -4.6449199678880966e+00
flow[sink_14,sink_10] -2.0999086634554764e+01
flow[sink_25,sink_26] 0
flow[sink_26,sink_9] 3.2708333333334551e+01
flow[sink_9,sink_18] 1.6354166666667879e+01
flow[sink_26,sink_4] -4.9062500000001265e+01
flow[sink_4,sink_20] -8.7559094654925218e+01
flow[sink_18,sink_6] 0
flow[sink_25,innode_8] -1.3125152419172403e+02
flow[sink_6,sink_7] -2.9433982011838204e+01
flow[sink_6,sink_22] 1.3079815345171536e+01
flow[sink_7,sink_24] 7.1521705047640927e-01
flow[sink_22,sink_1] 0
flow[sink_24,sink_21] 0
flow[sink_21,sink_12] 0
flow[sink_7,sink_5] -4.6503365728981279e+01
flow[sink_5,sink_17] -6.2857532395647951e+01
flow[sink_17,sink_4] -2.2142427988257282e+01
flow[sink_17,sink_8] -57.0692710740573
flow[sink_3,sink_23] 16.3541666666697
flow[sink_8,sink_20] -7.3423437740723969e+01
flow[sink_25,sink_20] 1.7733669906231589e+02
flow[sink_25,sink_15] -7.4148588236037313e+01
flow[sink_15,sink_29] -5.1859259158573124e+01
flow[sink_29,sink_28] 1.6354166666667879e+01
flow[sink_29,sink_2] 5.4997662410797531e+01
flow[sink_2,sink_15] 3.8643495744130867e+01
flow[sink_29,innode_7] -1.3956525490270519e+02
flow[innode_4,sink_19] 0
flow[sink_19,innode_3] 3.4189758547866433e+01
flow[innode_4,innode_5] 1.0276991996788892e+02
flow[sink_27,innode_5] -1.0276991996788892e+02
flow[sink_27,sink_19] 8.6415753301222253e+01
flow[sink_10,sink_11] 3.2708333333333641e+01
flow[sink_10,innode_2] -3.5871828086688637e+01
flow[sink_10,innode_3] -3.4189758547866433e+01
flow[innode_6,sink_25] -1.1709246698778571e+01
flow[sink_11,innode_1] 1.6354166666666970e+01
flow[sink_19,innode_2] 3.5871828086688637e+01
flow[source_3,innode_4] 1.0276991996788892e+02
flow[source_2,innode_7] 1.3956525490270519e+02
flow[sink_3,innode_8] 1.3125152419172403e+02
pressure[innode_1] 76.1867052825711
pressure[innode_2] 78.2343808600584
pressure[innode_3] 7.8158671511324314e+01
pressure[innode_4] 81.01325
pressure[innode_5] 8.0942559429971425e+01
pressure[innode_6] 7.5401417918454925e+01
pressure[innode_7] 81.01325
pressure[innode_8] 8.0465194831229567e+01
pressure[source_1] 81.01325
pressure[source_2] 81.01325
pressure[source_3] 81.01325
pressure[sink_1] 1.01325
pressure[sink_2] 7.5887273320118382e+01
pressure[sink_3] 8.0465194831229567e+01
pressure[sink_4] 2.6701148782473179e+01
pressure[sink_5] 2.1172506380979613e+01
pressure[sink_6] 1.4280618181252267e+00
pressure[sink_7] 1.8321202311534561e+00
pressure[sink_8] 2.8008310057105998e+01
pressure[sink_9] 1.8505537385169831e+01
pressure[sink_10] 7.6338406590174642e+01
pressure[sink_11] 76.1867052825711
pressure[sink_12] 1.01325
pressure[sink_13] 7.5336866798201456e+01
pressure[sink_14] 7.5345179278143689e+01
pressure[sink_15] 7.5761110823403072e+01
pressure[sink_16] 7.5165055447753417e+01
pressure[sink_17] 2.5854938197161367e+01
pressure[sink_18] 1.7913794891370127e+01
pressure[sink_19] 78.2343808600584
pressure[sink_20] 33.1248910939287
pressure[sink_21] 1.01325
pressure[sink_22] 1.01325
pressure[sink_23] 8.0300476819569781e+01
pressure[sink_24] 1.01325
pressure[sink_25] 7.5401417918454925e+01
pressure[sink_26] 2.0463215553054436e+01
pressure[sink_27] 80.0897589926314
pressure[sink_28] 7.6985143903993375e+01
pressure[sink_29] 7.7280426177610565e+01
interdiction[source_1,sink_3] 0
interdiction[innode_1,sink_16] 0
interdiction[innode_6,sink_13] 0
interdiction[sink_13,sink_14] 0
interdiction[sink_14,sink_10] 0
interdiction[sink_25,sink_26] 1
interdiction[sink_26,sink_9] 0
interdiction[sink_9,sink_18] 0
interdiction[sink_26,sink_4] 0
interdiction[sink_4,sink_20] 0
interdiction[sink_18,sink_6] 1
interdiction[sink_25,innode_8] 0
interdiction[sink_6,sink_7] 0
interdiction[sink_6,sink_22] 0
interdiction[sink_7,sink_24] 0
interdiction[sink_22,sink_1] 0
interdiction[sink_24,sink_21] 0
interdiction[sink_21,sink_12] 0
interdiction[sink_7,sink_5] 0
interdiction[sink_5,sink_17] 0
interdiction[sink_17,sink_4] 0
interdiction[sink_17,sink_8] 0
interdiction[sink_3,sink_23] 0
interdiction[sink_8,sink_20] 0
interdiction[sink_25,sink_20] 0
interdiction[sink_25,sink_15] 0
interdiction[sink_15,sink_29] 0
interdiction[sink_29,sink_28] 0
interdiction[sink_29,sink_2] 0
interdiction[sink_2,sink_15] 0
interdiction[sink_29,innode_7] 0
interdiction[innode_4,sink_19] 1
interdiction[sink_19,innode_3] 0
interdiction[innode_4,innode_5] 0
interdiction[sink_27,innode_5] 0
interdiction[sink_27,sink_19] 0
interdiction[sink_10,sink_11] 0
interdiction[sink_10,innode_2] 0
interdiction[sink_10,innode_3] 0
interdiction[innode_6,sink_25] 0
interdiction[sink_11,innode_1] 0
interdiction[sink_19,innode_2] 0
interdiction[source_3,innode_4] 0
interdiction[source_2,innode_7] 0
interdiction[sink_3,innode_8] 0
WCcheckFlow[source_1,sink_3] 39
WCcheckFlow[innode_1,sink_16] 1
WCcheckFlow[innode_6,sink_13] 13
WCcheckFlow[sink_13,sink_14] 12
WCcheckFlow[sink_14,sink_10] 11
WCcheckFlow[sink_25,sink_26] 0
WCcheckFlow[sink_26,sink_9] 2
WCcheckFlow[sink_9,sink_18] 1
WCcheckFlow[sink_26,sink_4] -3
WCcheckFlow[sink_4,sink_20] -14
WCcheckFlow[sink_18,sink_6] 0
WCcheckFlow[sink_25,innode_8] -36
WCcheckFlow[sink_6,sink_7] -3
WCcheckFlow[sink_6,sink_22] 2
WCcheckFlow[sink_7,sink_24] 3
WCcheckFlow[sink_22,sink_1] 1
WCcheckFlow[sink_24,sink_21] 2
WCcheckFlow[sink_21,sink_12] 1
WCcheckFlow[sink_7,sink_5] -7
WCcheckFlow[sink_5,sink_17] -8
WCcheckFlow[sink_17,sink_4] -10
WCcheckFlow[sink_17,sink_8] 1
WCcheckFlow[sink_3,sink_23] 1
WCcheckFlow[sink_8,sink_20] 0
WCcheckFlow[sink_25,sink_20] 15
WCcheckFlow[sink_25,sink_15] 6
WCcheckFlow[sink_15,sink_29] 5
WCcheckFlow[sink_29,sink_28] 1
WCcheckFlow[sink_29,sink_2] 1
WCcheckFlow[sink_2,sink_15] 0
WCcheckFlow[sink_29,innode_7] 2
WCcheckFlow[innode_4,sink_19] 0
WCcheckFlow[sink_19,innode_3] -5
WCcheckFlow[innode_4,innode_5] -2
WCcheckFlow[sink_27,innode_5] 3
WCcheckFlow[sink_27,sink_19] -4
WCcheckFlow[sink_10,sink_11] 3
WCcheckFlow[sink_10,innode_2] 1
WCcheckFlow[sink_10,innode_3] 6
WCcheckFlow[innode_6,sink_25] -14
WCcheckFlow[sink_11,innode_1] 2
WCcheckFlow[sink_19,innode_2] 0
WCcheckFlow[source_3,innode_4] -1
WCcheckFlow[source_2,innode_7] -1
WCcheckFlow[sink_3,innode_8] 37
